(set-info :smt-lib-version 2.6)
(set-logic QF_NIA)
(set-info :source |
 more info in 'N. P. Lopes, L. Aksoy, V. Manquinho, J. Monteiro.
 Optimally Solving the MCM Problem Using Pseudo-Boolean Satisfiability.
 Technical Report RT/43/2010, INESC-ID, Nov. 2010'. |)
(set-info :category "industrial")
(set-info :status unknown)
(declare-fun X0 () Int)
(declare-fun X1 () Int)
(declare-fun X2 () Int)
(declare-fun X3 () Int)
(declare-fun X4 () Int)
(declare-fun X5 () Int)
(declare-fun X6 () Int)
(declare-fun X7 () Int)
(declare-fun X8 () Int)
(declare-fun X9 () Int)
(declare-fun X10 () Int)
(declare-fun X11 () Int)
(declare-fun S0 () Int)
(declare-fun S1 () Int)
(declare-fun S2 () Int)
(declare-fun S3 () Int)
(declare-fun S4 () Int)
(declare-fun S5 () Int)
(declare-fun S6 () Int)
(declare-fun S7 () Int)
(declare-fun S8 () Int)
(declare-fun S9 () Int)
(declare-fun S10 () Int)
(declare-fun S11 () Int)
(declare-fun S12 () Int)
(declare-fun S13 () Int)
(declare-fun S14 () Int)
(declare-fun S15 () Int)
(declare-fun S16 () Int)
(declare-fun S17 () Int)
(declare-fun S18 () Int)
(declare-fun S19 () Int)
(declare-fun S20 () Int)
(declare-fun S21 () Int)
(declare-fun S22 () Int)
(declare-fun S23 () Int)
(define-fun power2 ((x Int)) Bool
  (or (= x 2048) (= x 1024) (= x 512) (= x 256) (= x 128) (= x 64) (= x 32) (= x 16) (= x 8) (= x 4) (= x 2) (= x 1)))
(assert (or
 (= X0 (+ S0 S1))
 (= X0 (- S0 S1))
))
(assert (and (> X0 0) (< X0 4096) (power2 S0) (power2 S1)))
(assert (or
 (= X1 (+ S2 S3))
 (= X1 (- S2 S3))
 (= X1 (+ (* X0 S2) S3))
 (= X1 (- (* X0 S2) S3))
 (= X1 (- S2 (* X0 S3)))
 (= X1 (+ (* X0 S2) (* X0 S3)))
 (= X1 (- (* X0 S2) (* X0 S3)))
))
(assert (and (> X1 0) (< X1 4096) (power2 S2) (power2 S3)))
(assert (or
 (= X2 (+ (* X0 S4) S5))
 (= X2 (- (* X0 S4) S5))
 (= X2 (- S4 (* X0 S5)))
 (= X2 (+ (* X0 S4) (* X0 S5)))
 (= X2 (- (* X0 S4) (* X0 S5)))
 (= X2 (+ (* X0 S4) (* X1 S5)))
 (= X2 (- (* X0 S4) (* X1 S5)))
 (= X2 (- (* X1 S4) (* X0 S5)))
 (= X2 (+ (* X1 S4) S5))
 (= X2 (- (* X1 S4) S5))
 (= X2 (- S4 (* X1 S5)))
 (= X2 (+ (* X1 S4) (* X1 S5)))
 (= X2 (- (* X1 S4) (* X1 S5)))
))
(assert (and (> X2 0) (< X2 4096) (power2 S4) (power2 S5)))
(assert (or
 (= X3 (+ (* X0 S6) S7))
 (= X3 (- (* X0 S6) S7))
 (= X3 (- S6 (* X0 S7)))
 (= X3 (+ (* X0 S6) (* X0 S7)))
 (= X3 (- (* X0 S6) (* X0 S7)))
 (= X3 (+ (* X0 S6) (* X1 S7)))
 (= X3 (- (* X0 S6) (* X1 S7)))
 (= X3 (- (* X1 S6) (* X0 S7)))
 (= X3 (+ (* X0 S6) (* X2 S7)))
 (= X3 (- (* X0 S6) (* X2 S7)))
 (= X3 (- (* X2 S6) (* X0 S7)))
 (= X3 (+ (* X1 S6) S7))
 (= X3 (- (* X1 S6) S7))
 (= X3 (- S6 (* X1 S7)))
 (= X3 (+ (* X1 S6) (* X1 S7)))
 (= X3 (- (* X1 S6) (* X1 S7)))
 (= X3 (+ (* X1 S6) (* X2 S7)))
 (= X3 (- (* X1 S6) (* X2 S7)))
 (= X3 (- (* X2 S6) (* X1 S7)))
 (= X3 (+ (* X2 S6) S7))
 (= X3 (- (* X2 S6) S7))
 (= X3 (- S6 (* X2 S7)))
 (= X3 (+ (* X2 S6) (* X2 S7)))
 (= X3 (- (* X2 S6) (* X2 S7)))
))
(assert (and (> X3 0) (< X3 4096) (power2 S6) (power2 S7)))
(assert (or
 (= X4 (+ (* X0 S8) S9))
 (= X4 (- (* X0 S8) S9))
 (= X4 (- S8 (* X0 S9)))
 (= X4 (+ (* X0 S8) (* X0 S9)))
 (= X4 (- (* X0 S8) (* X0 S9)))
 (= X4 (+ (* X0 S8) (* X1 S9)))
 (= X4 (- (* X0 S8) (* X1 S9)))
 (= X4 (- (* X1 S8) (* X0 S9)))
 (= X4 (+ (* X0 S8) (* X2 S9)))
 (= X4 (- (* X0 S8) (* X2 S9)))
 (= X4 (- (* X2 S8) (* X0 S9)))
 (= X4 (+ (* X0 S8) (* X3 S9)))
 (= X4 (- (* X0 S8) (* X3 S9)))
 (= X4 (- (* X3 S8) (* X0 S9)))
 (= X4 (+ (* X1 S8) S9))
 (= X4 (- (* X1 S8) S9))
 (= X4 (- S8 (* X1 S9)))
 (= X4 (+ (* X1 S8) (* X1 S9)))
 (= X4 (- (* X1 S8) (* X1 S9)))
 (= X4 (+ (* X1 S8) (* X2 S9)))
 (= X4 (- (* X1 S8) (* X2 S9)))
 (= X4 (- (* X2 S8) (* X1 S9)))
 (= X4 (+ (* X1 S8) (* X3 S9)))
 (= X4 (- (* X1 S8) (* X3 S9)))
 (= X4 (- (* X3 S8) (* X1 S9)))
 (= X4 (+ (* X2 S8) S9))
 (= X4 (- (* X2 S8) S9))
 (= X4 (- S8 (* X2 S9)))
 (= X4 (+ (* X2 S8) (* X2 S9)))
 (= X4 (- (* X2 S8) (* X2 S9)))
 (= X4 (+ (* X2 S8) (* X3 S9)))
 (= X4 (- (* X2 S8) (* X3 S9)))
 (= X4 (- (* X3 S8) (* X2 S9)))
 (= X4 (+ (* X3 S8) S9))
 (= X4 (- (* X3 S8) S9))
 (= X4 (- S8 (* X3 S9)))
 (= X4 (+ (* X3 S8) (* X3 S9)))
 (= X4 (- (* X3 S8) (* X3 S9)))
))
(assert (and (> X4 0) (< X4 4096) (power2 S8) (power2 S9)))
(assert (or
 (= X5 (+ (* X0 S10) S11))
 (= X5 (- (* X0 S10) S11))
 (= X5 (- S10 (* X0 S11)))
 (= X5 (+ (* X0 S10) (* X0 S11)))
 (= X5 (- (* X0 S10) (* X0 S11)))
 (= X5 (+ (* X0 S10) (* X1 S11)))
 (= X5 (- (* X0 S10) (* X1 S11)))
 (= X5 (- (* X1 S10) (* X0 S11)))
 (= X5 (+ (* X0 S10) (* X2 S11)))
 (= X5 (- (* X0 S10) (* X2 S11)))
 (= X5 (- (* X2 S10) (* X0 S11)))
 (= X5 (+ (* X0 S10) (* X3 S11)))
 (= X5 (- (* X0 S10) (* X3 S11)))
 (= X5 (- (* X3 S10) (* X0 S11)))
 (= X5 (+ (* X0 S10) (* X4 S11)))
 (= X5 (- (* X0 S10) (* X4 S11)))
 (= X5 (- (* X4 S10) (* X0 S11)))
 (= X5 (+ (* X1 S10) S11))
 (= X5 (- (* X1 S10) S11))
 (= X5 (- S10 (* X1 S11)))
 (= X5 (+ (* X1 S10) (* X1 S11)))
 (= X5 (- (* X1 S10) (* X1 S11)))
 (= X5 (+ (* X1 S10) (* X2 S11)))
 (= X5 (- (* X1 S10) (* X2 S11)))
 (= X5 (- (* X2 S10) (* X1 S11)))
 (= X5 (+ (* X1 S10) (* X3 S11)))
 (= X5 (- (* X1 S10) (* X3 S11)))
 (= X5 (- (* X3 S10) (* X1 S11)))
 (= X5 (+ (* X1 S10) (* X4 S11)))
 (= X5 (- (* X1 S10) (* X4 S11)))
 (= X5 (- (* X4 S10) (* X1 S11)))
 (= X5 (+ (* X2 S10) S11))
 (= X5 (- (* X2 S10) S11))
 (= X5 (- S10 (* X2 S11)))
 (= X5 (+ (* X2 S10) (* X2 S11)))
 (= X5 (- (* X2 S10) (* X2 S11)))
 (= X5 (+ (* X2 S10) (* X3 S11)))
 (= X5 (- (* X2 S10) (* X3 S11)))
 (= X5 (- (* X3 S10) (* X2 S11)))
 (= X5 (+ (* X2 S10) (* X4 S11)))
 (= X5 (- (* X2 S10) (* X4 S11)))
 (= X5 (- (* X4 S10) (* X2 S11)))
 (= X5 (+ (* X3 S10) S11))
 (= X5 (- (* X3 S10) S11))
 (= X5 (- S10 (* X3 S11)))
 (= X5 (+ (* X3 S10) (* X3 S11)))
 (= X5 (- (* X3 S10) (* X3 S11)))
 (= X5 (+ (* X3 S10) (* X4 S11)))
 (= X5 (- (* X3 S10) (* X4 S11)))
 (= X5 (- (* X4 S10) (* X3 S11)))
 (= X5 (+ (* X4 S10) S11))
 (= X5 (- (* X4 S10) S11))
 (= X5 (- S10 (* X4 S11)))
 (= X5 (+ (* X4 S10) (* X4 S11)))
 (= X5 (- (* X4 S10) (* X4 S11)))
))
(assert (and (> X5 0) (< X5 4096) (power2 S10) (power2 S11)))
(assert (or
 (= X6 (+ (* X0 S12) S13))
 (= X6 (- (* X0 S12) S13))
 (= X6 (- S12 (* X0 S13)))
 (= X6 (+ (* X0 S12) (* X0 S13)))
 (= X6 (- (* X0 S12) (* X0 S13)))
 (= X6 (+ (* X0 S12) (* X1 S13)))
 (= X6 (- (* X0 S12) (* X1 S13)))
 (= X6 (- (* X1 S12) (* X0 S13)))
 (= X6 (+ (* X0 S12) (* X2 S13)))
 (= X6 (- (* X0 S12) (* X2 S13)))
 (= X6 (- (* X2 S12) (* X0 S13)))
 (= X6 (+ (* X0 S12) (* X3 S13)))
 (= X6 (- (* X0 S12) (* X3 S13)))
 (= X6 (- (* X3 S12) (* X0 S13)))
 (= X6 (+ (* X0 S12) (* X4 S13)))
 (= X6 (- (* X0 S12) (* X4 S13)))
 (= X6 (- (* X4 S12) (* X0 S13)))
 (= X6 (+ (* X0 S12) (* X5 S13)))
 (= X6 (- (* X0 S12) (* X5 S13)))
 (= X6 (- (* X5 S12) (* X0 S13)))
 (= X6 (+ (* X1 S12) S13))
 (= X6 (- (* X1 S12) S13))
 (= X6 (- S12 (* X1 S13)))
 (= X6 (+ (* X1 S12) (* X1 S13)))
 (= X6 (- (* X1 S12) (* X1 S13)))
 (= X6 (+ (* X1 S12) (* X2 S13)))
 (= X6 (- (* X1 S12) (* X2 S13)))
 (= X6 (- (* X2 S12) (* X1 S13)))
 (= X6 (+ (* X1 S12) (* X3 S13)))
 (= X6 (- (* X1 S12) (* X3 S13)))
 (= X6 (- (* X3 S12) (* X1 S13)))
 (= X6 (+ (* X1 S12) (* X4 S13)))
 (= X6 (- (* X1 S12) (* X4 S13)))
 (= X6 (- (* X4 S12) (* X1 S13)))
 (= X6 (+ (* X1 S12) (* X5 S13)))
 (= X6 (- (* X1 S12) (* X5 S13)))
 (= X6 (- (* X5 S12) (* X1 S13)))
 (= X6 (+ (* X2 S12) S13))
 (= X6 (- (* X2 S12) S13))
 (= X6 (- S12 (* X2 S13)))
 (= X6 (+ (* X2 S12) (* X2 S13)))
 (= X6 (- (* X2 S12) (* X2 S13)))
 (= X6 (+ (* X2 S12) (* X3 S13)))
 (= X6 (- (* X2 S12) (* X3 S13)))
 (= X6 (- (* X3 S12) (* X2 S13)))
 (= X6 (+ (* X2 S12) (* X4 S13)))
 (= X6 (- (* X2 S12) (* X4 S13)))
 (= X6 (- (* X4 S12) (* X2 S13)))
 (= X6 (+ (* X2 S12) (* X5 S13)))
 (= X6 (- (* X2 S12) (* X5 S13)))
 (= X6 (- (* X5 S12) (* X2 S13)))
 (= X6 (+ (* X3 S12) S13))
 (= X6 (- (* X3 S12) S13))
 (= X6 (- S12 (* X3 S13)))
 (= X6 (+ (* X3 S12) (* X3 S13)))
 (= X6 (- (* X3 S12) (* X3 S13)))
 (= X6 (+ (* X3 S12) (* X4 S13)))
 (= X6 (- (* X3 S12) (* X4 S13)))
 (= X6 (- (* X4 S12) (* X3 S13)))
 (= X6 (+ (* X3 S12) (* X5 S13)))
 (= X6 (- (* X3 S12) (* X5 S13)))
 (= X6 (- (* X5 S12) (* X3 S13)))
 (= X6 (+ (* X4 S12) S13))
 (= X6 (- (* X4 S12) S13))
 (= X6 (- S12 (* X4 S13)))
 (= X6 (+ (* X4 S12) (* X4 S13)))
 (= X6 (- (* X4 S12) (* X4 S13)))
 (= X6 (+ (* X4 S12) (* X5 S13)))
 (= X6 (- (* X4 S12) (* X5 S13)))
 (= X6 (- (* X5 S12) (* X4 S13)))
 (= X6 (+ (* X5 S12) S13))
 (= X6 (- (* X5 S12) S13))
 (= X6 (- S12 (* X5 S13)))
 (= X6 (+ (* X5 S12) (* X5 S13)))
 (= X6 (- (* X5 S12) (* X5 S13)))
))
(assert (and (> X6 0) (< X6 4096) (power2 S12) (power2 S13)))
(assert (or
 (= X7 (+ (* X0 S14) S15))
 (= X7 (- (* X0 S14) S15))
 (= X7 (- S14 (* X0 S15)))
 (= X7 (+ (* X0 S14) (* X0 S15)))
 (= X7 (- (* X0 S14) (* X0 S15)))
 (= X7 (+ (* X0 S14) (* X1 S15)))
 (= X7 (- (* X0 S14) (* X1 S15)))
 (= X7 (- (* X1 S14) (* X0 S15)))
 (= X7 (+ (* X0 S14) (* X2 S15)))
 (= X7 (- (* X0 S14) (* X2 S15)))
 (= X7 (- (* X2 S14) (* X0 S15)))
 (= X7 (+ (* X0 S14) (* X3 S15)))
 (= X7 (- (* X0 S14) (* X3 S15)))
 (= X7 (- (* X3 S14) (* X0 S15)))
 (= X7 (+ (* X0 S14) (* X4 S15)))
 (= X7 (- (* X0 S14) (* X4 S15)))
 (= X7 (- (* X4 S14) (* X0 S15)))
 (= X7 (+ (* X0 S14) (* X5 S15)))
 (= X7 (- (* X0 S14) (* X5 S15)))
 (= X7 (- (* X5 S14) (* X0 S15)))
 (= X7 (+ (* X0 S14) (* X6 S15)))
 (= X7 (- (* X0 S14) (* X6 S15)))
 (= X7 (- (* X6 S14) (* X0 S15)))
 (= X7 (+ (* X1 S14) S15))
 (= X7 (- (* X1 S14) S15))
 (= X7 (- S14 (* X1 S15)))
 (= X7 (+ (* X1 S14) (* X1 S15)))
 (= X7 (- (* X1 S14) (* X1 S15)))
 (= X7 (+ (* X1 S14) (* X2 S15)))
 (= X7 (- (* X1 S14) (* X2 S15)))
 (= X7 (- (* X2 S14) (* X1 S15)))
 (= X7 (+ (* X1 S14) (* X3 S15)))
 (= X7 (- (* X1 S14) (* X3 S15)))
 (= X7 (- (* X3 S14) (* X1 S15)))
 (= X7 (+ (* X1 S14) (* X4 S15)))
 (= X7 (- (* X1 S14) (* X4 S15)))
 (= X7 (- (* X4 S14) (* X1 S15)))
 (= X7 (+ (* X1 S14) (* X5 S15)))
 (= X7 (- (* X1 S14) (* X5 S15)))
 (= X7 (- (* X5 S14) (* X1 S15)))
 (= X7 (+ (* X1 S14) (* X6 S15)))
 (= X7 (- (* X1 S14) (* X6 S15)))
 (= X7 (- (* X6 S14) (* X1 S15)))
 (= X7 (+ (* X2 S14) S15))
 (= X7 (- (* X2 S14) S15))
 (= X7 (- S14 (* X2 S15)))
 (= X7 (+ (* X2 S14) (* X2 S15)))
 (= X7 (- (* X2 S14) (* X2 S15)))
 (= X7 (+ (* X2 S14) (* X3 S15)))
 (= X7 (- (* X2 S14) (* X3 S15)))
 (= X7 (- (* X3 S14) (* X2 S15)))
 (= X7 (+ (* X2 S14) (* X4 S15)))
 (= X7 (- (* X2 S14) (* X4 S15)))
 (= X7 (- (* X4 S14) (* X2 S15)))
 (= X7 (+ (* X2 S14) (* X5 S15)))
 (= X7 (- (* X2 S14) (* X5 S15)))
 (= X7 (- (* X5 S14) (* X2 S15)))
 (= X7 (+ (* X2 S14) (* X6 S15)))
 (= X7 (- (* X2 S14) (* X6 S15)))
 (= X7 (- (* X6 S14) (* X2 S15)))
 (= X7 (+ (* X3 S14) S15))
 (= X7 (- (* X3 S14) S15))
 (= X7 (- S14 (* X3 S15)))
 (= X7 (+ (* X3 S14) (* X3 S15)))
 (= X7 (- (* X3 S14) (* X3 S15)))
 (= X7 (+ (* X3 S14) (* X4 S15)))
 (= X7 (- (* X3 S14) (* X4 S15)))
 (= X7 (- (* X4 S14) (* X3 S15)))
 (= X7 (+ (* X3 S14) (* X5 S15)))
 (= X7 (- (* X3 S14) (* X5 S15)))
 (= X7 (- (* X5 S14) (* X3 S15)))
 (= X7 (+ (* X3 S14) (* X6 S15)))
 (= X7 (- (* X3 S14) (* X6 S15)))
 (= X7 (- (* X6 S14) (* X3 S15)))
 (= X7 (+ (* X4 S14) S15))
 (= X7 (- (* X4 S14) S15))
 (= X7 (- S14 (* X4 S15)))
 (= X7 (+ (* X4 S14) (* X4 S15)))
 (= X7 (- (* X4 S14) (* X4 S15)))
 (= X7 (+ (* X4 S14) (* X5 S15)))
 (= X7 (- (* X4 S14) (* X5 S15)))
 (= X7 (- (* X5 S14) (* X4 S15)))
 (= X7 (+ (* X4 S14) (* X6 S15)))
 (= X7 (- (* X4 S14) (* X6 S15)))
 (= X7 (- (* X6 S14) (* X4 S15)))
 (= X7 (+ (* X5 S14) S15))
 (= X7 (- (* X5 S14) S15))
 (= X7 (- S14 (* X5 S15)))
 (= X7 (+ (* X5 S14) (* X5 S15)))
 (= X7 (- (* X5 S14) (* X5 S15)))
 (= X7 (+ (* X5 S14) (* X6 S15)))
 (= X7 (- (* X5 S14) (* X6 S15)))
 (= X7 (- (* X6 S14) (* X5 S15)))
 (= X7 (+ (* X6 S14) S15))
 (= X7 (- (* X6 S14) S15))
 (= X7 (- S14 (* X6 S15)))
 (= X7 (+ (* X6 S14) (* X6 S15)))
 (= X7 (- (* X6 S14) (* X6 S15)))
))
(assert (and (> X7 0) (< X7 4096) (power2 S14) (power2 S15)))
(assert (or
 (= X8 (+ (* X0 S16) S17))
 (= X8 (- (* X0 S16) S17))
 (= X8 (- S16 (* X0 S17)))
 (= X8 (+ (* X0 S16) (* X0 S17)))
 (= X8 (- (* X0 S16) (* X0 S17)))
 (= X8 (+ (* X0 S16) (* X1 S17)))
 (= X8 (- (* X0 S16) (* X1 S17)))
 (= X8 (- (* X1 S16) (* X0 S17)))
 (= X8 (+ (* X0 S16) (* X2 S17)))
 (= X8 (- (* X0 S16) (* X2 S17)))
 (= X8 (- (* X2 S16) (* X0 S17)))
 (= X8 (+ (* X0 S16) (* X3 S17)))
 (= X8 (- (* X0 S16) (* X3 S17)))
 (= X8 (- (* X3 S16) (* X0 S17)))
 (= X8 (+ (* X0 S16) (* X4 S17)))
 (= X8 (- (* X0 S16) (* X4 S17)))
 (= X8 (- (* X4 S16) (* X0 S17)))
 (= X8 (+ (* X0 S16) (* X5 S17)))
 (= X8 (- (* X0 S16) (* X5 S17)))
 (= X8 (- (* X5 S16) (* X0 S17)))
 (= X8 (+ (* X0 S16) (* X6 S17)))
 (= X8 (- (* X0 S16) (* X6 S17)))
 (= X8 (- (* X6 S16) (* X0 S17)))
 (= X8 (+ (* X0 S16) (* X7 S17)))
 (= X8 (- (* X0 S16) (* X7 S17)))
 (= X8 (- (* X7 S16) (* X0 S17)))
 (= X8 (+ (* X1 S16) S17))
 (= X8 (- (* X1 S16) S17))
 (= X8 (- S16 (* X1 S17)))
 (= X8 (+ (* X1 S16) (* X1 S17)))
 (= X8 (- (* X1 S16) (* X1 S17)))
 (= X8 (+ (* X1 S16) (* X2 S17)))
 (= X8 (- (* X1 S16) (* X2 S17)))
 (= X8 (- (* X2 S16) (* X1 S17)))
 (= X8 (+ (* X1 S16) (* X3 S17)))
 (= X8 (- (* X1 S16) (* X3 S17)))
 (= X8 (- (* X3 S16) (* X1 S17)))
 (= X8 (+ (* X1 S16) (* X4 S17)))
 (= X8 (- (* X1 S16) (* X4 S17)))
 (= X8 (- (* X4 S16) (* X1 S17)))
 (= X8 (+ (* X1 S16) (* X5 S17)))
 (= X8 (- (* X1 S16) (* X5 S17)))
 (= X8 (- (* X5 S16) (* X1 S17)))
 (= X8 (+ (* X1 S16) (* X6 S17)))
 (= X8 (- (* X1 S16) (* X6 S17)))
 (= X8 (- (* X6 S16) (* X1 S17)))
 (= X8 (+ (* X1 S16) (* X7 S17)))
 (= X8 (- (* X1 S16) (* X7 S17)))
 (= X8 (- (* X7 S16) (* X1 S17)))
 (= X8 (+ (* X2 S16) S17))
 (= X8 (- (* X2 S16) S17))
 (= X8 (- S16 (* X2 S17)))
 (= X8 (+ (* X2 S16) (* X2 S17)))
 (= X8 (- (* X2 S16) (* X2 S17)))
 (= X8 (+ (* X2 S16) (* X3 S17)))
 (= X8 (- (* X2 S16) (* X3 S17)))
 (= X8 (- (* X3 S16) (* X2 S17)))
 (= X8 (+ (* X2 S16) (* X4 S17)))
 (= X8 (- (* X2 S16) (* X4 S17)))
 (= X8 (- (* X4 S16) (* X2 S17)))
 (= X8 (+ (* X2 S16) (* X5 S17)))
 (= X8 (- (* X2 S16) (* X5 S17)))
 (= X8 (- (* X5 S16) (* X2 S17)))
 (= X8 (+ (* X2 S16) (* X6 S17)))
 (= X8 (- (* X2 S16) (* X6 S17)))
 (= X8 (- (* X6 S16) (* X2 S17)))
 (= X8 (+ (* X2 S16) (* X7 S17)))
 (= X8 (- (* X2 S16) (* X7 S17)))
 (= X8 (- (* X7 S16) (* X2 S17)))
 (= X8 (+ (* X3 S16) S17))
 (= X8 (- (* X3 S16) S17))
 (= X8 (- S16 (* X3 S17)))
 (= X8 (+ (* X3 S16) (* X3 S17)))
 (= X8 (- (* X3 S16) (* X3 S17)))
 (= X8 (+ (* X3 S16) (* X4 S17)))
 (= X8 (- (* X3 S16) (* X4 S17)))
 (= X8 (- (* X4 S16) (* X3 S17)))
 (= X8 (+ (* X3 S16) (* X5 S17)))
 (= X8 (- (* X3 S16) (* X5 S17)))
 (= X8 (- (* X5 S16) (* X3 S17)))
 (= X8 (+ (* X3 S16) (* X6 S17)))
 (= X8 (- (* X3 S16) (* X6 S17)))
 (= X8 (- (* X6 S16) (* X3 S17)))
 (= X8 (+ (* X3 S16) (* X7 S17)))
 (= X8 (- (* X3 S16) (* X7 S17)))
 (= X8 (- (* X7 S16) (* X3 S17)))
 (= X8 (+ (* X4 S16) S17))
 (= X8 (- (* X4 S16) S17))
 (= X8 (- S16 (* X4 S17)))
 (= X8 (+ (* X4 S16) (* X4 S17)))
 (= X8 (- (* X4 S16) (* X4 S17)))
 (= X8 (+ (* X4 S16) (* X5 S17)))
 (= X8 (- (* X4 S16) (* X5 S17)))
 (= X8 (- (* X5 S16) (* X4 S17)))
 (= X8 (+ (* X4 S16) (* X6 S17)))
 (= X8 (- (* X4 S16) (* X6 S17)))
 (= X8 (- (* X6 S16) (* X4 S17)))
 (= X8 (+ (* X4 S16) (* X7 S17)))
 (= X8 (- (* X4 S16) (* X7 S17)))
 (= X8 (- (* X7 S16) (* X4 S17)))
 (= X8 (+ (* X5 S16) S17))
 (= X8 (- (* X5 S16) S17))
 (= X8 (- S16 (* X5 S17)))
 (= X8 (+ (* X5 S16) (* X5 S17)))
 (= X8 (- (* X5 S16) (* X5 S17)))
 (= X8 (+ (* X5 S16) (* X6 S17)))
 (= X8 (- (* X5 S16) (* X6 S17)))
 (= X8 (- (* X6 S16) (* X5 S17)))
 (= X8 (+ (* X5 S16) (* X7 S17)))
 (= X8 (- (* X5 S16) (* X7 S17)))
 (= X8 (- (* X7 S16) (* X5 S17)))
 (= X8 (+ (* X6 S16) S17))
 (= X8 (- (* X6 S16) S17))
 (= X8 (- S16 (* X6 S17)))
 (= X8 (+ (* X6 S16) (* X6 S17)))
 (= X8 (- (* X6 S16) (* X6 S17)))
 (= X8 (+ (* X6 S16) (* X7 S17)))
 (= X8 (- (* X6 S16) (* X7 S17)))
 (= X8 (- (* X7 S16) (* X6 S17)))
 (= X8 (+ (* X7 S16) S17))
 (= X8 (- (* X7 S16) S17))
 (= X8 (- S16 (* X7 S17)))
 (= X8 (+ (* X7 S16) (* X7 S17)))
 (= X8 (- (* X7 S16) (* X7 S17)))
))
(assert (and (> X8 0) (< X8 4096) (power2 S16) (power2 S17)))
(assert (or
 (= X9 (+ (* X0 S18) S19))
 (= X9 (- (* X0 S18) S19))
 (= X9 (- S18 (* X0 S19)))
 (= X9 (+ (* X0 S18) (* X0 S19)))
 (= X9 (- (* X0 S18) (* X0 S19)))
 (= X9 (+ (* X0 S18) (* X1 S19)))
 (= X9 (- (* X0 S18) (* X1 S19)))
 (= X9 (- (* X1 S18) (* X0 S19)))
 (= X9 (+ (* X0 S18) (* X2 S19)))
 (= X9 (- (* X0 S18) (* X2 S19)))
 (= X9 (- (* X2 S18) (* X0 S19)))
 (= X9 (+ (* X0 S18) (* X3 S19)))
 (= X9 (- (* X0 S18) (* X3 S19)))
 (= X9 (- (* X3 S18) (* X0 S19)))
 (= X9 (+ (* X0 S18) (* X4 S19)))
 (= X9 (- (* X0 S18) (* X4 S19)))
 (= X9 (- (* X4 S18) (* X0 S19)))
 (= X9 (+ (* X0 S18) (* X5 S19)))
 (= X9 (- (* X0 S18) (* X5 S19)))
 (= X9 (- (* X5 S18) (* X0 S19)))
 (= X9 (+ (* X0 S18) (* X6 S19)))
 (= X9 (- (* X0 S18) (* X6 S19)))
 (= X9 (- (* X6 S18) (* X0 S19)))
 (= X9 (+ (* X0 S18) (* X7 S19)))
 (= X9 (- (* X0 S18) (* X7 S19)))
 (= X9 (- (* X7 S18) (* X0 S19)))
 (= X9 (+ (* X0 S18) (* X8 S19)))
 (= X9 (- (* X0 S18) (* X8 S19)))
 (= X9 (- (* X8 S18) (* X0 S19)))
 (= X9 (+ (* X1 S18) S19))
 (= X9 (- (* X1 S18) S19))
 (= X9 (- S18 (* X1 S19)))
 (= X9 (+ (* X1 S18) (* X1 S19)))
 (= X9 (- (* X1 S18) (* X1 S19)))
 (= X9 (+ (* X1 S18) (* X2 S19)))
 (= X9 (- (* X1 S18) (* X2 S19)))
 (= X9 (- (* X2 S18) (* X1 S19)))
 (= X9 (+ (* X1 S18) (* X3 S19)))
 (= X9 (- (* X1 S18) (* X3 S19)))
 (= X9 (- (* X3 S18) (* X1 S19)))
 (= X9 (+ (* X1 S18) (* X4 S19)))
 (= X9 (- (* X1 S18) (* X4 S19)))
 (= X9 (- (* X4 S18) (* X1 S19)))
 (= X9 (+ (* X1 S18) (* X5 S19)))
 (= X9 (- (* X1 S18) (* X5 S19)))
 (= X9 (- (* X5 S18) (* X1 S19)))
 (= X9 (+ (* X1 S18) (* X6 S19)))
 (= X9 (- (* X1 S18) (* X6 S19)))
 (= X9 (- (* X6 S18) (* X1 S19)))
 (= X9 (+ (* X1 S18) (* X7 S19)))
 (= X9 (- (* X1 S18) (* X7 S19)))
 (= X9 (- (* X7 S18) (* X1 S19)))
 (= X9 (+ (* X1 S18) (* X8 S19)))
 (= X9 (- (* X1 S18) (* X8 S19)))
 (= X9 (- (* X8 S18) (* X1 S19)))
 (= X9 (+ (* X2 S18) S19))
 (= X9 (- (* X2 S18) S19))
 (= X9 (- S18 (* X2 S19)))
 (= X9 (+ (* X2 S18) (* X2 S19)))
 (= X9 (- (* X2 S18) (* X2 S19)))
 (= X9 (+ (* X2 S18) (* X3 S19)))
 (= X9 (- (* X2 S18) (* X3 S19)))
 (= X9 (- (* X3 S18) (* X2 S19)))
 (= X9 (+ (* X2 S18) (* X4 S19)))
 (= X9 (- (* X2 S18) (* X4 S19)))
 (= X9 (- (* X4 S18) (* X2 S19)))
 (= X9 (+ (* X2 S18) (* X5 S19)))
 (= X9 (- (* X2 S18) (* X5 S19)))
 (= X9 (- (* X5 S18) (* X2 S19)))
 (= X9 (+ (* X2 S18) (* X6 S19)))
 (= X9 (- (* X2 S18) (* X6 S19)))
 (= X9 (- (* X6 S18) (* X2 S19)))
 (= X9 (+ (* X2 S18) (* X7 S19)))
 (= X9 (- (* X2 S18) (* X7 S19)))
 (= X9 (- (* X7 S18) (* X2 S19)))
 (= X9 (+ (* X2 S18) (* X8 S19)))
 (= X9 (- (* X2 S18) (* X8 S19)))
 (= X9 (- (* X8 S18) (* X2 S19)))
 (= X9 (+ (* X3 S18) S19))
 (= X9 (- (* X3 S18) S19))
 (= X9 (- S18 (* X3 S19)))
 (= X9 (+ (* X3 S18) (* X3 S19)))
 (= X9 (- (* X3 S18) (* X3 S19)))
 (= X9 (+ (* X3 S18) (* X4 S19)))
 (= X9 (- (* X3 S18) (* X4 S19)))
 (= X9 (- (* X4 S18) (* X3 S19)))
 (= X9 (+ (* X3 S18) (* X5 S19)))
 (= X9 (- (* X3 S18) (* X5 S19)))
 (= X9 (- (* X5 S18) (* X3 S19)))
 (= X9 (+ (* X3 S18) (* X6 S19)))
 (= X9 (- (* X3 S18) (* X6 S19)))
 (= X9 (- (* X6 S18) (* X3 S19)))
 (= X9 (+ (* X3 S18) (* X7 S19)))
 (= X9 (- (* X3 S18) (* X7 S19)))
 (= X9 (- (* X7 S18) (* X3 S19)))
 (= X9 (+ (* X3 S18) (* X8 S19)))
 (= X9 (- (* X3 S18) (* X8 S19)))
 (= X9 (- (* X8 S18) (* X3 S19)))
 (= X9 (+ (* X4 S18) S19))
 (= X9 (- (* X4 S18) S19))
 (= X9 (- S18 (* X4 S19)))
 (= X9 (+ (* X4 S18) (* X4 S19)))
 (= X9 (- (* X4 S18) (* X4 S19)))
 (= X9 (+ (* X4 S18) (* X5 S19)))
 (= X9 (- (* X4 S18) (* X5 S19)))
 (= X9 (- (* X5 S18) (* X4 S19)))
 (= X9 (+ (* X4 S18) (* X6 S19)))
 (= X9 (- (* X4 S18) (* X6 S19)))
 (= X9 (- (* X6 S18) (* X4 S19)))
 (= X9 (+ (* X4 S18) (* X7 S19)))
 (= X9 (- (* X4 S18) (* X7 S19)))
 (= X9 (- (* X7 S18) (* X4 S19)))
 (= X9 (+ (* X4 S18) (* X8 S19)))
 (= X9 (- (* X4 S18) (* X8 S19)))
 (= X9 (- (* X8 S18) (* X4 S19)))
 (= X9 (+ (* X5 S18) S19))
 (= X9 (- (* X5 S18) S19))
 (= X9 (- S18 (* X5 S19)))
 (= X9 (+ (* X5 S18) (* X5 S19)))
 (= X9 (- (* X5 S18) (* X5 S19)))
 (= X9 (+ (* X5 S18) (* X6 S19)))
 (= X9 (- (* X5 S18) (* X6 S19)))
 (= X9 (- (* X6 S18) (* X5 S19)))
 (= X9 (+ (* X5 S18) (* X7 S19)))
 (= X9 (- (* X5 S18) (* X7 S19)))
 (= X9 (- (* X7 S18) (* X5 S19)))
 (= X9 (+ (* X5 S18) (* X8 S19)))
 (= X9 (- (* X5 S18) (* X8 S19)))
 (= X9 (- (* X8 S18) (* X5 S19)))
 (= X9 (+ (* X6 S18) S19))
 (= X9 (- (* X6 S18) S19))
 (= X9 (- S18 (* X6 S19)))
 (= X9 (+ (* X6 S18) (* X6 S19)))
 (= X9 (- (* X6 S18) (* X6 S19)))
 (= X9 (+ (* X6 S18) (* X7 S19)))
 (= X9 (- (* X6 S18) (* X7 S19)))
 (= X9 (- (* X7 S18) (* X6 S19)))
 (= X9 (+ (* X6 S18) (* X8 S19)))
 (= X9 (- (* X6 S18) (* X8 S19)))
 (= X9 (- (* X8 S18) (* X6 S19)))
 (= X9 (+ (* X7 S18) S19))
 (= X9 (- (* X7 S18) S19))
 (= X9 (- S18 (* X7 S19)))
 (= X9 (+ (* X7 S18) (* X7 S19)))
 (= X9 (- (* X7 S18) (* X7 S19)))
 (= X9 (+ (* X7 S18) (* X8 S19)))
 (= X9 (- (* X7 S18) (* X8 S19)))
 (= X9 (- (* X8 S18) (* X7 S19)))
 (= X9 (+ (* X8 S18) S19))
 (= X9 (- (* X8 S18) S19))
 (= X9 (- S18 (* X8 S19)))
 (= X9 (+ (* X8 S18) (* X8 S19)))
 (= X9 (- (* X8 S18) (* X8 S19)))
))
(assert (and (> X9 0) (< X9 4096) (power2 S18) (power2 S19)))
(assert (or
 (= X10 (+ (* X0 S20) S21))
 (= X10 (- (* X0 S20) S21))
 (= X10 (- S20 (* X0 S21)))
 (= X10 (+ (* X0 S20) (* X0 S21)))
 (= X10 (- (* X0 S20) (* X0 S21)))
 (= X10 (+ (* X0 S20) (* X1 S21)))
 (= X10 (- (* X0 S20) (* X1 S21)))
 (= X10 (- (* X1 S20) (* X0 S21)))
 (= X10 (+ (* X0 S20) (* X2 S21)))
 (= X10 (- (* X0 S20) (* X2 S21)))
 (= X10 (- (* X2 S20) (* X0 S21)))
 (= X10 (+ (* X0 S20) (* X3 S21)))
 (= X10 (- (* X0 S20) (* X3 S21)))
 (= X10 (- (* X3 S20) (* X0 S21)))
 (= X10 (+ (* X0 S20) (* X4 S21)))
 (= X10 (- (* X0 S20) (* X4 S21)))
 (= X10 (- (* X4 S20) (* X0 S21)))
 (= X10 (+ (* X0 S20) (* X5 S21)))
 (= X10 (- (* X0 S20) (* X5 S21)))
 (= X10 (- (* X5 S20) (* X0 S21)))
 (= X10 (+ (* X0 S20) (* X6 S21)))
 (= X10 (- (* X0 S20) (* X6 S21)))
 (= X10 (- (* X6 S20) (* X0 S21)))
 (= X10 (+ (* X0 S20) (* X7 S21)))
 (= X10 (- (* X0 S20) (* X7 S21)))
 (= X10 (- (* X7 S20) (* X0 S21)))
 (= X10 (+ (* X0 S20) (* X8 S21)))
 (= X10 (- (* X0 S20) (* X8 S21)))
 (= X10 (- (* X8 S20) (* X0 S21)))
 (= X10 (+ (* X0 S20) (* X9 S21)))
 (= X10 (- (* X0 S20) (* X9 S21)))
 (= X10 (- (* X9 S20) (* X0 S21)))
 (= X10 (+ (* X1 S20) S21))
 (= X10 (- (* X1 S20) S21))
 (= X10 (- S20 (* X1 S21)))
 (= X10 (+ (* X1 S20) (* X1 S21)))
 (= X10 (- (* X1 S20) (* X1 S21)))
 (= X10 (+ (* X1 S20) (* X2 S21)))
 (= X10 (- (* X1 S20) (* X2 S21)))
 (= X10 (- (* X2 S20) (* X1 S21)))
 (= X10 (+ (* X1 S20) (* X3 S21)))
 (= X10 (- (* X1 S20) (* X3 S21)))
 (= X10 (- (* X3 S20) (* X1 S21)))
 (= X10 (+ (* X1 S20) (* X4 S21)))
 (= X10 (- (* X1 S20) (* X4 S21)))
 (= X10 (- (* X4 S20) (* X1 S21)))
 (= X10 (+ (* X1 S20) (* X5 S21)))
 (= X10 (- (* X1 S20) (* X5 S21)))
 (= X10 (- (* X5 S20) (* X1 S21)))
 (= X10 (+ (* X1 S20) (* X6 S21)))
 (= X10 (- (* X1 S20) (* X6 S21)))
 (= X10 (- (* X6 S20) (* X1 S21)))
 (= X10 (+ (* X1 S20) (* X7 S21)))
 (= X10 (- (* X1 S20) (* X7 S21)))
 (= X10 (- (* X7 S20) (* X1 S21)))
 (= X10 (+ (* X1 S20) (* X8 S21)))
 (= X10 (- (* X1 S20) (* X8 S21)))
 (= X10 (- (* X8 S20) (* X1 S21)))
 (= X10 (+ (* X1 S20) (* X9 S21)))
 (= X10 (- (* X1 S20) (* X9 S21)))
 (= X10 (- (* X9 S20) (* X1 S21)))
 (= X10 (+ (* X2 S20) S21))
 (= X10 (- (* X2 S20) S21))
 (= X10 (- S20 (* X2 S21)))
 (= X10 (+ (* X2 S20) (* X2 S21)))
 (= X10 (- (* X2 S20) (* X2 S21)))
 (= X10 (+ (* X2 S20) (* X3 S21)))
 (= X10 (- (* X2 S20) (* X3 S21)))
 (= X10 (- (* X3 S20) (* X2 S21)))
 (= X10 (+ (* X2 S20) (* X4 S21)))
 (= X10 (- (* X2 S20) (* X4 S21)))
 (= X10 (- (* X4 S20) (* X2 S21)))
 (= X10 (+ (* X2 S20) (* X5 S21)))
 (= X10 (- (* X2 S20) (* X5 S21)))
 (= X10 (- (* X5 S20) (* X2 S21)))
 (= X10 (+ (* X2 S20) (* X6 S21)))
 (= X10 (- (* X2 S20) (* X6 S21)))
 (= X10 (- (* X6 S20) (* X2 S21)))
 (= X10 (+ (* X2 S20) (* X7 S21)))
 (= X10 (- (* X2 S20) (* X7 S21)))
 (= X10 (- (* X7 S20) (* X2 S21)))
 (= X10 (+ (* X2 S20) (* X8 S21)))
 (= X10 (- (* X2 S20) (* X8 S21)))
 (= X10 (- (* X8 S20) (* X2 S21)))
 (= X10 (+ (* X2 S20) (* X9 S21)))
 (= X10 (- (* X2 S20) (* X9 S21)))
 (= X10 (- (* X9 S20) (* X2 S21)))
 (= X10 (+ (* X3 S20) S21))
 (= X10 (- (* X3 S20) S21))
 (= X10 (- S20 (* X3 S21)))
 (= X10 (+ (* X3 S20) (* X3 S21)))
 (= X10 (- (* X3 S20) (* X3 S21)))
 (= X10 (+ (* X3 S20) (* X4 S21)))
 (= X10 (- (* X3 S20) (* X4 S21)))
 (= X10 (- (* X4 S20) (* X3 S21)))
 (= X10 (+ (* X3 S20) (* X5 S21)))
 (= X10 (- (* X3 S20) (* X5 S21)))
 (= X10 (- (* X5 S20) (* X3 S21)))
 (= X10 (+ (* X3 S20) (* X6 S21)))
 (= X10 (- (* X3 S20) (* X6 S21)))
 (= X10 (- (* X6 S20) (* X3 S21)))
 (= X10 (+ (* X3 S20) (* X7 S21)))
 (= X10 (- (* X3 S20) (* X7 S21)))
 (= X10 (- (* X7 S20) (* X3 S21)))
 (= X10 (+ (* X3 S20) (* X8 S21)))
 (= X10 (- (* X3 S20) (* X8 S21)))
 (= X10 (- (* X8 S20) (* X3 S21)))
 (= X10 (+ (* X3 S20) (* X9 S21)))
 (= X10 (- (* X3 S20) (* X9 S21)))
 (= X10 (- (* X9 S20) (* X3 S21)))
 (= X10 (+ (* X4 S20) S21))
 (= X10 (- (* X4 S20) S21))
 (= X10 (- S20 (* X4 S21)))
 (= X10 (+ (* X4 S20) (* X4 S21)))
 (= X10 (- (* X4 S20) (* X4 S21)))
 (= X10 (+ (* X4 S20) (* X5 S21)))
 (= X10 (- (* X4 S20) (* X5 S21)))
 (= X10 (- (* X5 S20) (* X4 S21)))
 (= X10 (+ (* X4 S20) (* X6 S21)))
 (= X10 (- (* X4 S20) (* X6 S21)))
 (= X10 (- (* X6 S20) (* X4 S21)))
 (= X10 (+ (* X4 S20) (* X7 S21)))
 (= X10 (- (* X4 S20) (* X7 S21)))
 (= X10 (- (* X7 S20) (* X4 S21)))
 (= X10 (+ (* X4 S20) (* X8 S21)))
 (= X10 (- (* X4 S20) (* X8 S21)))
 (= X10 (- (* X8 S20) (* X4 S21)))
 (= X10 (+ (* X4 S20) (* X9 S21)))
 (= X10 (- (* X4 S20) (* X9 S21)))
 (= X10 (- (* X9 S20) (* X4 S21)))
 (= X10 (+ (* X5 S20) S21))
 (= X10 (- (* X5 S20) S21))
 (= X10 (- S20 (* X5 S21)))
 (= X10 (+ (* X5 S20) (* X5 S21)))
 (= X10 (- (* X5 S20) (* X5 S21)))
 (= X10 (+ (* X5 S20) (* X6 S21)))
 (= X10 (- (* X5 S20) (* X6 S21)))
 (= X10 (- (* X6 S20) (* X5 S21)))
 (= X10 (+ (* X5 S20) (* X7 S21)))
 (= X10 (- (* X5 S20) (* X7 S21)))
 (= X10 (- (* X7 S20) (* X5 S21)))
 (= X10 (+ (* X5 S20) (* X8 S21)))
 (= X10 (- (* X5 S20) (* X8 S21)))
 (= X10 (- (* X8 S20) (* X5 S21)))
 (= X10 (+ (* X5 S20) (* X9 S21)))
 (= X10 (- (* X5 S20) (* X9 S21)))
 (= X10 (- (* X9 S20) (* X5 S21)))
 (= X10 (+ (* X6 S20) S21))
 (= X10 (- (* X6 S20) S21))
 (= X10 (- S20 (* X6 S21)))
 (= X10 (+ (* X6 S20) (* X6 S21)))
 (= X10 (- (* X6 S20) (* X6 S21)))
 (= X10 (+ (* X6 S20) (* X7 S21)))
 (= X10 (- (* X6 S20) (* X7 S21)))
 (= X10 (- (* X7 S20) (* X6 S21)))
 (= X10 (+ (* X6 S20) (* X8 S21)))
 (= X10 (- (* X6 S20) (* X8 S21)))
 (= X10 (- (* X8 S20) (* X6 S21)))
 (= X10 (+ (* X6 S20) (* X9 S21)))
 (= X10 (- (* X6 S20) (* X9 S21)))
 (= X10 (- (* X9 S20) (* X6 S21)))
 (= X10 (+ (* X7 S20) S21))
 (= X10 (- (* X7 S20) S21))
 (= X10 (- S20 (* X7 S21)))
 (= X10 (+ (* X7 S20) (* X7 S21)))
 (= X10 (- (* X7 S20) (* X7 S21)))
 (= X10 (+ (* X7 S20) (* X8 S21)))
 (= X10 (- (* X7 S20) (* X8 S21)))
 (= X10 (- (* X8 S20) (* X7 S21)))
 (= X10 (+ (* X7 S20) (* X9 S21)))
 (= X10 (- (* X7 S20) (* X9 S21)))
 (= X10 (- (* X9 S20) (* X7 S21)))
 (= X10 (+ (* X8 S20) S21))
 (= X10 (- (* X8 S20) S21))
 (= X10 (- S20 (* X8 S21)))
 (= X10 (+ (* X8 S20) (* X8 S21)))
 (= X10 (- (* X8 S20) (* X8 S21)))
 (= X10 (+ (* X8 S20) (* X9 S21)))
 (= X10 (- (* X8 S20) (* X9 S21)))
 (= X10 (- (* X9 S20) (* X8 S21)))
 (= X10 (+ (* X9 S20) S21))
 (= X10 (- (* X9 S20) S21))
 (= X10 (- S20 (* X9 S21)))
 (= X10 (+ (* X9 S20) (* X9 S21)))
 (= X10 (- (* X9 S20) (* X9 S21)))
))
(assert (and (> X10 0) (< X10 4096) (power2 S20) (power2 S21)))
(assert (or
 (= X11 (+ (* X0 S22) S23))
 (= X11 (- (* X0 S22) S23))
 (= X11 (- S22 (* X0 S23)))
 (= X11 (+ (* X0 S22) (* X0 S23)))
 (= X11 (- (* X0 S22) (* X0 S23)))
 (= X11 (+ (* X0 S22) (* X1 S23)))
 (= X11 (- (* X0 S22) (* X1 S23)))
 (= X11 (- (* X1 S22) (* X0 S23)))
 (= X11 (+ (* X0 S22) (* X2 S23)))
 (= X11 (- (* X0 S22) (* X2 S23)))
 (= X11 (- (* X2 S22) (* X0 S23)))
 (= X11 (+ (* X0 S22) (* X3 S23)))
 (= X11 (- (* X0 S22) (* X3 S23)))
 (= X11 (- (* X3 S22) (* X0 S23)))
 (= X11 (+ (* X0 S22) (* X4 S23)))
 (= X11 (- (* X0 S22) (* X4 S23)))
 (= X11 (- (* X4 S22) (* X0 S23)))
 (= X11 (+ (* X0 S22) (* X5 S23)))
 (= X11 (- (* X0 S22) (* X5 S23)))
 (= X11 (- (* X5 S22) (* X0 S23)))
 (= X11 (+ (* X0 S22) (* X6 S23)))
 (= X11 (- (* X0 S22) (* X6 S23)))
 (= X11 (- (* X6 S22) (* X0 S23)))
 (= X11 (+ (* X0 S22) (* X7 S23)))
 (= X11 (- (* X0 S22) (* X7 S23)))
 (= X11 (- (* X7 S22) (* X0 S23)))
 (= X11 (+ (* X0 S22) (* X8 S23)))
 (= X11 (- (* X0 S22) (* X8 S23)))
 (= X11 (- (* X8 S22) (* X0 S23)))
 (= X11 (+ (* X0 S22) (* X9 S23)))
 (= X11 (- (* X0 S22) (* X9 S23)))
 (= X11 (- (* X9 S22) (* X0 S23)))
 (= X11 (+ (* X0 S22) (* X10 S23)))
 (= X11 (- (* X0 S22) (* X10 S23)))
 (= X11 (- (* X10 S22) (* X0 S23)))
 (= X11 (+ (* X1 S22) S23))
 (= X11 (- (* X1 S22) S23))
 (= X11 (- S22 (* X1 S23)))
 (= X11 (+ (* X1 S22) (* X1 S23)))
 (= X11 (- (* X1 S22) (* X1 S23)))
 (= X11 (+ (* X1 S22) (* X2 S23)))
 (= X11 (- (* X1 S22) (* X2 S23)))
 (= X11 (- (* X2 S22) (* X1 S23)))
 (= X11 (+ (* X1 S22) (* X3 S23)))
 (= X11 (- (* X1 S22) (* X3 S23)))
 (= X11 (- (* X3 S22) (* X1 S23)))
 (= X11 (+ (* X1 S22) (* X4 S23)))
 (= X11 (- (* X1 S22) (* X4 S23)))
 (= X11 (- (* X4 S22) (* X1 S23)))
 (= X11 (+ (* X1 S22) (* X5 S23)))
 (= X11 (- (* X1 S22) (* X5 S23)))
 (= X11 (- (* X5 S22) (* X1 S23)))
 (= X11 (+ (* X1 S22) (* X6 S23)))
 (= X11 (- (* X1 S22) (* X6 S23)))
 (= X11 (- (* X6 S22) (* X1 S23)))
 (= X11 (+ (* X1 S22) (* X7 S23)))
 (= X11 (- (* X1 S22) (* X7 S23)))
 (= X11 (- (* X7 S22) (* X1 S23)))
 (= X11 (+ (* X1 S22) (* X8 S23)))
 (= X11 (- (* X1 S22) (* X8 S23)))
 (= X11 (- (* X8 S22) (* X1 S23)))
 (= X11 (+ (* X1 S22) (* X9 S23)))
 (= X11 (- (* X1 S22) (* X9 S23)))
 (= X11 (- (* X9 S22) (* X1 S23)))
 (= X11 (+ (* X1 S22) (* X10 S23)))
 (= X11 (- (* X1 S22) (* X10 S23)))
 (= X11 (- (* X10 S22) (* X1 S23)))
 (= X11 (+ (* X2 S22) S23))
 (= X11 (- (* X2 S22) S23))
 (= X11 (- S22 (* X2 S23)))
 (= X11 (+ (* X2 S22) (* X2 S23)))
 (= X11 (- (* X2 S22) (* X2 S23)))
 (= X11 (+ (* X2 S22) (* X3 S23)))
 (= X11 (- (* X2 S22) (* X3 S23)))
 (= X11 (- (* X3 S22) (* X2 S23)))
 (= X11 (+ (* X2 S22) (* X4 S23)))
 (= X11 (- (* X2 S22) (* X4 S23)))
 (= X11 (- (* X4 S22) (* X2 S23)))
 (= X11 (+ (* X2 S22) (* X5 S23)))
 (= X11 (- (* X2 S22) (* X5 S23)))
 (= X11 (- (* X5 S22) (* X2 S23)))
 (= X11 (+ (* X2 S22) (* X6 S23)))
 (= X11 (- (* X2 S22) (* X6 S23)))
 (= X11 (- (* X6 S22) (* X2 S23)))
 (= X11 (+ (* X2 S22) (* X7 S23)))
 (= X11 (- (* X2 S22) (* X7 S23)))
 (= X11 (- (* X7 S22) (* X2 S23)))
 (= X11 (+ (* X2 S22) (* X8 S23)))
 (= X11 (- (* X2 S22) (* X8 S23)))
 (= X11 (- (* X8 S22) (* X2 S23)))
 (= X11 (+ (* X2 S22) (* X9 S23)))
 (= X11 (- (* X2 S22) (* X9 S23)))
 (= X11 (- (* X9 S22) (* X2 S23)))
 (= X11 (+ (* X2 S22) (* X10 S23)))
 (= X11 (- (* X2 S22) (* X10 S23)))
 (= X11 (- (* X10 S22) (* X2 S23)))
 (= X11 (+ (* X3 S22) S23))
 (= X11 (- (* X3 S22) S23))
 (= X11 (- S22 (* X3 S23)))
 (= X11 (+ (* X3 S22) (* X3 S23)))
 (= X11 (- (* X3 S22) (* X3 S23)))
 (= X11 (+ (* X3 S22) (* X4 S23)))
 (= X11 (- (* X3 S22) (* X4 S23)))
 (= X11 (- (* X4 S22) (* X3 S23)))
 (= X11 (+ (* X3 S22) (* X5 S23)))
 (= X11 (- (* X3 S22) (* X5 S23)))
 (= X11 (- (* X5 S22) (* X3 S23)))
 (= X11 (+ (* X3 S22) (* X6 S23)))
 (= X11 (- (* X3 S22) (* X6 S23)))
 (= X11 (- (* X6 S22) (* X3 S23)))
 (= X11 (+ (* X3 S22) (* X7 S23)))
 (= X11 (- (* X3 S22) (* X7 S23)))
 (= X11 (- (* X7 S22) (* X3 S23)))
 (= X11 (+ (* X3 S22) (* X8 S23)))
 (= X11 (- (* X3 S22) (* X8 S23)))
 (= X11 (- (* X8 S22) (* X3 S23)))
 (= X11 (+ (* X3 S22) (* X9 S23)))
 (= X11 (- (* X3 S22) (* X9 S23)))
 (= X11 (- (* X9 S22) (* X3 S23)))
 (= X11 (+ (* X3 S22) (* X10 S23)))
 (= X11 (- (* X3 S22) (* X10 S23)))
 (= X11 (- (* X10 S22) (* X3 S23)))
 (= X11 (+ (* X4 S22) S23))
 (= X11 (- (* X4 S22) S23))
 (= X11 (- S22 (* X4 S23)))
 (= X11 (+ (* X4 S22) (* X4 S23)))
 (= X11 (- (* X4 S22) (* X4 S23)))
 (= X11 (+ (* X4 S22) (* X5 S23)))
 (= X11 (- (* X4 S22) (* X5 S23)))
 (= X11 (- (* X5 S22) (* X4 S23)))
 (= X11 (+ (* X4 S22) (* X6 S23)))
 (= X11 (- (* X4 S22) (* X6 S23)))
 (= X11 (- (* X6 S22) (* X4 S23)))
 (= X11 (+ (* X4 S22) (* X7 S23)))
 (= X11 (- (* X4 S22) (* X7 S23)))
 (= X11 (- (* X7 S22) (* X4 S23)))
 (= X11 (+ (* X4 S22) (* X8 S23)))
 (= X11 (- (* X4 S22) (* X8 S23)))
 (= X11 (- (* X8 S22) (* X4 S23)))
 (= X11 (+ (* X4 S22) (* X9 S23)))
 (= X11 (- (* X4 S22) (* X9 S23)))
 (= X11 (- (* X9 S22) (* X4 S23)))
 (= X11 (+ (* X4 S22) (* X10 S23)))
 (= X11 (- (* X4 S22) (* X10 S23)))
 (= X11 (- (* X10 S22) (* X4 S23)))
 (= X11 (+ (* X5 S22) S23))
 (= X11 (- (* X5 S22) S23))
 (= X11 (- S22 (* X5 S23)))
 (= X11 (+ (* X5 S22) (* X5 S23)))
 (= X11 (- (* X5 S22) (* X5 S23)))
 (= X11 (+ (* X5 S22) (* X6 S23)))
 (= X11 (- (* X5 S22) (* X6 S23)))
 (= X11 (- (* X6 S22) (* X5 S23)))
 (= X11 (+ (* X5 S22) (* X7 S23)))
 (= X11 (- (* X5 S22) (* X7 S23)))
 (= X11 (- (* X7 S22) (* X5 S23)))
 (= X11 (+ (* X5 S22) (* X8 S23)))
 (= X11 (- (* X5 S22) (* X8 S23)))
 (= X11 (- (* X8 S22) (* X5 S23)))
 (= X11 (+ (* X5 S22) (* X9 S23)))
 (= X11 (- (* X5 S22) (* X9 S23)))
 (= X11 (- (* X9 S22) (* X5 S23)))
 (= X11 (+ (* X5 S22) (* X10 S23)))
 (= X11 (- (* X5 S22) (* X10 S23)))
 (= X11 (- (* X10 S22) (* X5 S23)))
 (= X11 (+ (* X6 S22) S23))
 (= X11 (- (* X6 S22) S23))
 (= X11 (- S22 (* X6 S23)))
 (= X11 (+ (* X6 S22) (* X6 S23)))
 (= X11 (- (* X6 S22) (* X6 S23)))
 (= X11 (+ (* X6 S22) (* X7 S23)))
 (= X11 (- (* X6 S22) (* X7 S23)))
 (= X11 (- (* X7 S22) (* X6 S23)))
 (= X11 (+ (* X6 S22) (* X8 S23)))
 (= X11 (- (* X6 S22) (* X8 S23)))
 (= X11 (- (* X8 S22) (* X6 S23)))
 (= X11 (+ (* X6 S22) (* X9 S23)))
 (= X11 (- (* X6 S22) (* X9 S23)))
 (= X11 (- (* X9 S22) (* X6 S23)))
 (= X11 (+ (* X6 S22) (* X10 S23)))
 (= X11 (- (* X6 S22) (* X10 S23)))
 (= X11 (- (* X10 S22) (* X6 S23)))
 (= X11 (+ (* X7 S22) S23))
 (= X11 (- (* X7 S22) S23))
 (= X11 (- S22 (* X7 S23)))
 (= X11 (+ (* X7 S22) (* X7 S23)))
 (= X11 (- (* X7 S22) (* X7 S23)))
 (= X11 (+ (* X7 S22) (* X8 S23)))
 (= X11 (- (* X7 S22) (* X8 S23)))
 (= X11 (- (* X8 S22) (* X7 S23)))
 (= X11 (+ (* X7 S22) (* X9 S23)))
 (= X11 (- (* X7 S22) (* X9 S23)))
 (= X11 (- (* X9 S22) (* X7 S23)))
 (= X11 (+ (* X7 S22) (* X10 S23)))
 (= X11 (- (* X7 S22) (* X10 S23)))
 (= X11 (- (* X10 S22) (* X7 S23)))
 (= X11 (+ (* X8 S22) S23))
 (= X11 (- (* X8 S22) S23))
 (= X11 (- S22 (* X8 S23)))
 (= X11 (+ (* X8 S22) (* X8 S23)))
 (= X11 (- (* X8 S22) (* X8 S23)))
 (= X11 (+ (* X8 S22) (* X9 S23)))
 (= X11 (- (* X8 S22) (* X9 S23)))
 (= X11 (- (* X9 S22) (* X8 S23)))
 (= X11 (+ (* X8 S22) (* X10 S23)))
 (= X11 (- (* X8 S22) (* X10 S23)))
 (= X11 (- (* X10 S22) (* X8 S23)))
 (= X11 (+ (* X9 S22) S23))
 (= X11 (- (* X9 S22) S23))
 (= X11 (- S22 (* X9 S23)))
 (= X11 (+ (* X9 S22) (* X9 S23)))
 (= X11 (- (* X9 S22) (* X9 S23)))
 (= X11 (+ (* X9 S22) (* X10 S23)))
 (= X11 (- (* X9 S22) (* X10 S23)))
 (= X11 (- (* X10 S22) (* X9 S23)))
 (= X11 (+ (* X10 S22) S23))
 (= X11 (- (* X10 S22) S23))
 (= X11 (- S22 (* X10 S23)))
 (= X11 (+ (* X10 S22) (* X10 S23)))
 (= X11 (- (* X10 S22) (* X10 S23)))
))
(assert (and (> X11 0) (< X11 4096) (power2 S22) (power2 S23)))
(assert (or
 (= X1 815)
 (= X2 815)
 (= X3 815)
 (= X4 815)
 (= X5 815)
 (= X6 815)
 (= X7 815)
 (= X8 815)
 (= X9 815)
 (= X10 815)
 (= X11 815)
))
(assert (or
 (= X1 877)
 (= X2 877)
 (= X3 877)
 (= X4 877)
 (= X5 877)
 (= X6 877)
 (= X7 877)
 (= X8 877)
 (= X9 877)
 (= X10 877)
 (= X11 877)
))
(assert (or
 (= X1 355)
 (= X2 355)
 (= X3 355)
 (= X4 355)
 (= X5 355)
 (= X6 355)
 (= X7 355)
 (= X8 355)
 (= X9 355)
 (= X10 355)
 (= X11 355)
))
(assert (or
 (= X1 427)
 (= X2 427)
 (= X3 427)
 (= X4 427)
 (= X5 427)
 (= X6 427)
 (= X7 427)
 (= X8 427)
 (= X9 427)
 (= X10 427)
 (= X11 427)
))
(assert (or
 (= X1 197)
 (= X2 197)
 (= X3 197)
 (= X4 197)
 (= X5 197)
 (= X6 197)
 (= X7 197)
 (= X8 197)
 (= X9 197)
 (= X10 197)
 (= X11 197)
))
(assert (or
 (= X1 793)
 (= X2 793)
 (= X3 793)
 (= X4 793)
 (= X5 793)
 (= X6 793)
 (= X7 793)
 (= X8 793)
 (= X9 793)
 (= X10 793)
 (= X11 793)
))
(assert (or
 (= X1 459)
 (= X2 459)
 (= X3 459)
 (= X4 459)
 (= X5 459)
 (= X6 459)
 (= X7 459)
 (= X8 459)
 (= X9 459)
 (= X10 459)
 (= X11 459)
))
(assert (or
 (= X1 1715)
 (= X2 1715)
 (= X3 1715)
 (= X4 1715)
 (= X5 1715)
 (= X6 1715)
 (= X7 1715)
 (= X8 1715)
 (= X9 1715)
 (= X10 1715)
 (= X11 1715)
))
(assert (or
 (= X1 1319)
 (= X2 1319)
 (= X3 1319)
 (= X4 1319)
 (= X5 1319)
 (= X6 1319)
 (= X7 1319)
 (= X8 1319)
 (= X9 1319)
 (= X10 1319)
 (= X11 1319)
))
(assert (or
 (= X1 217)
 (= X2 217)
 (= X3 217)
 (= X4 217)
 (= X5 217)
 (= X6 217)
 (= X7 217)
 (= X8 217)
 (= X9 217)
 (= X10 217)
 (= X11 217)
))
(check-sat)
(exit)
